result.sol
# Objective value = 0
x1 1
x4 1
x6 0
x9 0
x2 0
x3 0
x7 1
x8 1
x0 1
x5 1
x10 1
r0 0
r1 1
r2 0
r3 0
r4 1
r5 0
r6 0
r7 1
r8 1
r9 0
r10 0
r11 1
r12 1
r13 0
r14 1
r15 0
r16 0
r17 0
r18 0
r19 1
r20 1
r21 0
r22 0
r23 1
r24 0
r25 1
r26 1
r27 0
r28 0
r29 0
r30 0
r31 1
r32 0
r33 0
r34 1
r35 0
r36 0
r37 0
r38 0
r39 0
r40 0
r41 1
r42 0
r43 1
r44 0
r45 1
r46 1
r47 0
